
Gurobi 10.0.1 (win64) logging started Fri Jun  2 12:25:25 2023

Set parameter LogFile to value "results/log/Fattahi_setup_01_modified_deadline.log"
Gurobi Optimizer version 10.0.1 build v10.0.1rc0 (win64)

CPU model: AMD Ryzen 7 3700X 8-Core Processor, instruction set [SSE2|AVX|AVX2]
Thread count: 8 physical cores, 16 logical processors, using up to 16 threads

Optimize a model with 66 rows, 41 columns and 212 nonzeros
Model fingerprint: 0xb66beb90
Model has 1 quadratic constraint
Variable types: 0 continuous, 41 integer (32 binary)
Coefficient statistics:
  Matrix range     [1e+00, 7e+04]
  QMatrix range    [1e+00, 1e+00]
  QLMatrix range   [1e+00, 4e+01]
  Objective range  [1e+00, 1e+00]
  Bounds range     [1e+00, 1e+00]
  RHS range        [1e+00, 2e+05]
Presolve removed 29 rows and 23 columns
Presolve time: 0.00s
Presolved: 44 rows, 22 columns, 169 nonzeros
Variable types: 0 continuous, 22 integer (9 binary)
Found heuristic solution: objective 142.0000000
Found heuristic solution: objective 141.0000000
Found heuristic solution: objective 139.0000000

Root relaxation: objective 0.000000e+00, 13 iterations, 0.00 seconds (0.00 work units)

    Nodes    |    Current Node    |     Objective Bounds      |     Work
 Expl Unexpl |  Obj  Depth IntInf | Incumbent    BestBd   Gap | It/Node Time

     0     0    0.00000    0    7  139.00000    0.00000   100%     -    0s
     0     0   28.00000    0    5  139.00000   28.00000  79.9%     -    0s
H    0     0                     123.0000000   28.00000  77.2%     -    0s
H    0     0                     116.0000000   28.00000  75.9%     -    0s
H    0     0                     114.0000000   28.00000  75.4%     -    0s
H    0     0                      80.0000000   28.00000  65.0%     -    0s
     0     0 infeasible    0        80.00000   80.00000  0.00%     -    0s

Cutting planes:
  Learned: 1
  Cover: 1
  Implied bound: 3
  Flow cover: 2
  RLT: 3
  PSD: 2

Explored 1 nodes (34 simplex iterations) in 0.01 seconds (0.00 work units)
Thread count was 16 (of 16 available processors)

Solution count 7: 80 114 116 ... 142

Optimal solution found (tolerance 1.00e-04)
Best objective 8.000000000000e+01, best bound 8.000000000000e+01, gap 0.0000%
Warning: variable name "y[job:0, stage:0, machine:1]" has a space
Warning: constraint name "precedence between 1,0 to 0,0 if x_[j,l,h,z,i]=1" has a space
Warning: to let Gurobi read it back, use rlp format
Warning: variable name "y[job:0, stage:0, machine:1]" has a space
Warning: constraint name "precedence between 1,0 to 0,0 if x_[j,l,h,z,i]=1" has a space
Warning: default variable names used to write mps file
Warning: default constraint names used to write mps file
Warning: variable name "y[job:0, stage:0, machine:1]" has a space
Warning: default variable names used to write solution file
